1 -1 -2 0
1 3 4 0
1 -5 -6 0
1 4 7 0
1 -8 -9 0
1 10 11 0
1 12 13 0
1 12 -14 0
1 -12 10 0
1 11 -15 0
1 16 -17 0
1 18 6 0
1 -14 -12 0
1 -19 20 0
1 -19 -21 0
1 -19 -14 0
1 22 23 0
1 -24 19 0
1 -24 -25 0
1 21 26 0
1 -27 15 0
1 28 29 0
1 -30 -31 0
1 32 -33 0
1 -34 28 0
1 -34 35 0
1 36 33 0
1 -36 37 0
1 -38 39 0
1 -40 10 0
1 -41 -4 0
1 42 -41 0
1 -42 -43 0
1 -42 -6 0
1 29 44 0
1 29 -45 0
1 29 46 0
1 29 -47 0
1 6 39 0
1 -17 -4 0
1 17 48 0
1 -43 -39 0
1 43 -48 0
1 -20 19 0
1 -20 49 0
1 -20 50 0
1 -49 -17 0
1 -48 -41 0
1 51 6 0
1 51 -40 0
1 50 -20 0
1 -50 -51 0
1 -50 52 0
1 13 -49 0
1 -13 -53 0
1 -13 54 0
1 55 -56 0
1 -55 57 0
1 -57 -58 0
1 57 59 0
1 57 -48 0
1 57 60 0
1 -61 62 0
1 58 63 0
1 58 52 0
1 54 13 0
1 26 -59 0
1 26 64 0
1 -65 -21 0
1 65 -26 0
1 -65 22 0
1 64 -66 0
1 64 -67 0
1 -64 57 0
1 -67 -65 0
1 59 55 0
1 -59 68 0
1 59 69 0
1 -70 -67 0
1 70 -25 0
1 -71 64 0
1 -71 72 0
1 -23 -73 0
1 -25 -23 0
1 74 75 0
1 -76 77 0
1 76 -78 0
1 -79 -80 0
1 -78 -35 0
1 -81 -78 0
1 -77 82 0
1 77 -83 0
1 -84 85 0
1 -84 77 0
1 37 -47 0
1 -86 81 0
1 -35 80 0
1 87 -88 0
1 87 36 0
1 87 80 0
1 88 -89 0
1 90 87 0
1 -90 -89 0
1 90 91 0
1 92 93 0
1 92 94 0
1 -95 96 0
1 95 97 0
1 -45 93 0
1 45 -20 0
1 45 -96 0
1 45 98 0
1 -93 60 0
1 99 44 0
1 -98 -45 0
1 98 100 0
1 46 -93 0
1 46 99 0
1 -46 91 0
1 56 -101 0
1 56 102 0
1 -60 -103 0
1 60 -102 0
1 -60 104 0
1 101 56 0
1 101 32 0
1 -101 105 0
1 -101 -60 0
1 -103 106 0
1 -103 107 0
1 -108 109 0
1 -63 51 0
1 -63 -102 0
1 -63 -48 0
1 -52 -54 0
1 110 107 0
1 -111 42 0
1 -111 56 0
1 112 113 0
1 112 111 0
1 112 56 0
1 114 115 0
1 114 -63 0
1 -102 110 0
1 113 112 0
1 72 -113 0
1 -72 58 0
1 72 -116 0
1 -117 118 0
1 117 -119 0
1 69 120 0
1 -121 122 0
1 119 -123 0
1 -119 -124 0
1 -66 -67 0
1 66 -74 0
1 -68 -125 0
1 -68 -126 0
1 127 121 0
1 127 128 0
1 127 -129 0
1 -130 -131 0
1 -130 -132 0
1 130 133 0
1 62 131 0
1 -128 134 0
1 -128 -127 0
1 128 -135 0
1 -128 136 0
1 128 -137 0
1 -138 139 0
1 -140 131 0
1 75 -62 0
1 75 -25 0
1 75 133 0
1 -141 62 0
1 133 -142 0
1 -133 143 0
1 -133 64 0
1 -133 144 0
1 142 133 0
1 -132 -140 0
1 -132 145 0
1 132 -137 0
1 145 146 0
1 -147 148 0
1 -149 133 0
1 150 -151 0
1 -152 153 0
1 -154 153 0
1 148 -150 0
1 -148 141 0
1 151 -155 0
1 -151 -156 0
1 151 148 0
1 151 -157 0
1 -158 -159 0
1 -160 161 0
1 162 77 0
1 162 -163 0
1 164 163 0
1 159 97 0
1 -165 -162 0
1 166 -167 0
1 168 169 0
1 168 -170 0
1 169 -171 0
1 -169 172 0
1 -97 85 0
1 -173 -97 0
1 173 174 0
1 -175 -176 0
1 -175 169 0
1 -171 167 0
1 91 177 0
1 -176 -175 0
1 176 82 0
1 178 179 0
1 -178 -180 0
1 -178 -181 0
1 -104 182 0
1 -179 183 0
1 -179 -97 0
1 179 184 0
1 82 -176 0
1 -82 -185 0
1 82 -186 0
1 -100 93 0
1 100 -103 0
1 -100 -187 0
1 184 -180 0
1 -184 -108 0
1 107 -180 0
1 107 188 0
1 -188 -189 0
1 190 178 0
1 -181 107 0
1 -181 -184 0
1 -109 189 0
1 -109 96 0
1 109 -108 0
1 191 -189 0
1 191 109 0
1 -118 106 0
1 -118 192 0
1 -189 -191 0
1 -193 -194 0
1 193 -195 0
1 193 196 0
1 -194 197 0
1 -115 126 0
1 -115 102 0
1 -126 -106 0
1 -198 -192 0
1 123 105 0
1 199 -122 0
1 105 -198 0
1 106 -198 0
1 -106 123 0
1 200 106 0
1 134 -119 0
1 -122 201 0
1 139 -202 0
1 -139 203 0
1 -135 -204 0
1 -135 -201 0
1 205 198 0
1 -201 -206 0
1 -201 -207 0
1 -201 112 0
1 201 208 0
1 -201 139 0
1 209 -210 0
1 209 -208 0
1 -204 -139 0
1 -137 211 0
1 -212 137 0
1 -213 -214 0
1 213 201 0
1 207 -150 0
1 203 -121 0
1 215 -211 0
1 -215 -119 0
1 215 139 0
1 -157 216 0
1 -157 -132 0
1 157 208 0
1 217 -216 0
1 217 145 0
1 -217 157 0
1 218 -219 0
1 218 -136 0
1 -218 -148 0
1 156 203 0
1 156 220 0
1 -214 221 0
1 214 -155 0
1 214 -131 0
1 -214 -213 0
1 216 213 0
1 -219 -222 0
1 -219 -223 0
1 153 -224 0
1 -155 146 0
1 -225 224 0
1 -225 226 0
1 -221 146 0
1 -224 -227 0
1 -224 225 0
1 -228 -229 0
1 -229 -230 0
1 229 -225 0
1 -229 231 0
1 -226 232 0
1 233 234 0
1 235 161 0
1 236 237 0
1 -236 -238 0
1 -236 -235 0
1 -234 -233 0
1 239 240 0
1 241 -242 0
1 -243 -240 0
1 243 -241 0
1 -244 -245 0
1 244 -172 0
1 -244 -246 0
1 -244 241 0
1 247 172 0
1 -247 239 0
1 248 241 0
1 -249 172 0
1 172 250 0
1 -172 242 0
1 246 244 0
1 246 250 0
1 246 -165 0
1 -250 -251 0
1 -252 246 0
1 -253 -254 0
1 -255 -256 0
1 -255 251 0
1 255 -253 0
1 -167 -252 0
1 257 -258 0
1 257 -259 0
1 -260 -261 0
1 262 -263 0
1 262 -257 0
1 -262 -246 0
1 262 -264 0
1 -265 -246 0
1 266 -258 0
1 266 267 0
1 185 -182 0
1 -185 -259 0
1 -185 -268 0
1 269 259 0
1 -186 -270 0
1 186 271 0
1 -259 272 0
1 -259 -186 0
1 -273 260 0
1 -273 -186 0
1 -261 185 0
1 274 257 0
1 274 -186 0
1 275 -276 0
1 -275 177 0
1 -277 179 0
1 278 -273 0
1 278 -279 0
1 -278 280 0
1 -278 281 0
1 -279 197 0
1 -279 282 0
1 276 -283 0
1 276 275 0
1 276 284 0
1 -270 -285 0
1 -270 286 0
1 270 -287 0
1 270 278 0
1 288 194 0
1 289 -194 0
1 197 -290 0
1 197 195 0
1 -195 197 0
1 -195 284 0
1 183 197 0
1 280 -291 0
1 280 -292 0
1 280 -195 0
1 -280 82 0
1 -291 -287 0
1 291 -195 0
1 293 183 0
1 -293 290 0
1 293 294 0
1 -293 295 0
1 -294 200 0
1 202 -183 0
1 -202 296 0
1 -296 -135 0
1 296 -297 0
1 -298 -299 0
1 -300 -301 0
1 290 -293 0
1 -290 -301 0
1 -290 302 0
1 303 212 0
1 303 -304 0
1 305 209 0
1 -305 213 0
1 -306 307 0
1 -308 202 0
1 308 -296 0
1 309 310 0
1 309 -311 0
1 -208 206 0
1 -208 297 0
1 208 -157 0
1 208 215 0
1 -206 201 0
1 -206 205 0
1 312 -313 0
1 -314 210 0
1 314 -297 0
1 314 -215 0
1 315 316 0
1 315 -317 0
1 313 -318 0
1 -319 305 0
1 307 314 0
1 -307 206 0
1 -307 312 0
1 -307 305 0
1 -318 -211 0
1 318 153 0
1 318 -320 0
1 321 -155 0
1 -321 -220 0
1 316 -322 0
1 -322 316 0
1 322 312 0
1 210 321 0
1 210 317 0
1 -320 323 0
1 -222 -146 0
1 222 324 0
1 -222 -214 0
1 -222 -228 0
1 325 -326 0
1 -327 -328 0
1 327 329 0
1 -324 -316 0
1 324 -330 0
1 324 331 0
1 -324 -327 0
1 -332 -333 0
1 -332 -325 0
1 334 -222 0
1 335 336 0
1 -335 -337 0
1 -338 224 0
1 338 -339 0
1 -340 341 0
1 328 -340 0
1 337 -335 0
1 223 -342 0
1 223 340 0
1 -343 -344 0
1 -345 -346 0
1 347 348 0
1 -347 -349 0
1 350 351 0
1 351 341 0
1 348 -352 0
1 -348 -353 0
1 -354 240 0
1 -354 244 0
1 354 -355 0
1 -356 244 0
1 -357 -358 0
1 237 267 0
1 359 -360 0
1 -254 -258 0
1 -267 -237 0
1 -361 -362 0
1 -363 364 0
1 -364 267 0
1 364 -357 0
1 -364 254 0
1 -365 264 0
1 366 367 0
1 -366 -361 0
1 281 368 0
1 369 370 0
1 369 371 0
1 369 -365 0
1 372 -369 0
1 372 264 0
1 373 264 0
1 368 374 0
1 368 375 0
1 -285 -372 0
1 376 369 0
1 376 -367 0
1 -376 -263 0
1 376 289 0
1 376 -377 0
1 376 -378 0
1 370 -379 0
1 -284 369 0
1 263 -380 0
1 379 381 0
1 379 382 0
1 -379 284 0
1 -367 -366 0
1 -367 382 0
1 -378 -367 0
1 -378 376 0
1 287 -270 0
1 -380 263 0
1 380 -272 0
1 383 -370 0
1 383 301 0
1 383 287 0
1 383 272 0
1 -384 -385 0
1 -386 -291 0
1 -386 183 0
1 -301 -272 0
1 301 -300 0
1 302 383 0
1 -302 387 0
1 -388 -290 0
1 -388 389 0
1 388 -282 0
1 388 390 0
1 282 292 0
1 -391 271 0
1 -391 -392 0
1 -393 -394 0
1 -393 -395 0
1 393 -396 0
1 397 -385 0
1 397 392 0
1 398 -391 0
1 -398 399 0
1 400 -206 0
1 -401 390 0
1 -402 -399 0
1 390 -403 0
1 -390 -295 0
1 404 -403 0
1 -404 -400 0
1 311 -310 0
1 -311 -405 0
1 -311 390 0
1 310 308 0
1 -310 311 0
1 -406 -407 0
1 406 -405 0
1 -406 408 0
1 -406 -299 0
1 407 409 0
1 405 402 0
1 405 -410 0
1 -411 -402 0
1 411 412 0
1 413 -310 0
1 -413 -414 0
1 317 415 0
1 317 210 0
1 -416 403 0
1 416 315 0
1 326 -417 0
1 418 409 0
1 415 -419 0
1 415 333 0
1 409 418 0
1 -420 416 0
1 420 -419 0
1 -339 -210 0
1 339 320 0
1 339 -338 0
1 -339 -412 0
1 421 -331 0
1 -421 -422 0
1 -423 415 0
1 423 334 0
1 -424 425 0
1 424 421 0
1 424 -426 0
1 427 -419 0
1 427 -333 0
1 330 -230 0
1 330 332 0
1 426 -428 0
1 -426 429 0
1 430 -431 0
1 432 -210 0
1 -432 -342 0
1 -433 -330 0
1 -433 -423 0
1 434 -347 0
1 -434 435 0
1 -434 345 0
1 -436 437 0
1 438 -439 0
1 -437 -440 0
1 441 440 0
1 -441 437 0
1 442 438 0
1 443 444 0
1 445 -444 0
1 -445 -446 0
1 445 -370 0
1 -360 377 0
1 -447 369 0
1 447 -367 0
1 -448 449 0
1 450 -375 0
1 451 452 0
1 453 -451 0
1 453 -382 0
1 -453 454 0
1 455 448 0
1 -455 -447 0
1 -455 -456 0
1 -457 452 0
1 381 -382 0
1 382 451 0
1 -387 -371 0
1 387 -458 0
1 389 453 0
1 -371 387 0
1 -459 -381 0
1 449 -381 0
1 449 -448 0
1 449 -456 0
1 375 387 0
1 -460 -458 0
1 460 456 0
1 -385 -400 0
1 385 461 0
1 385 272 0
1 385 -459 0
1 -385 -462 0
1 396 -462 0
1 394 463 0
1 464 462 0
1 -464 392 0
1 462 465 0
1 462 408 0
1 -458 -394 0
1 -392 -465 0
1 392 462 0
1 465 -397 0
1 -465 -391 0
1 465 -466 0
1 -465 -392 0
1 -467 -468 0
1 -469 -470 0
1 -469 -392 0
1 469 471 0
1 466 472 0
1 466 394 0
1 473 -474 0
1 473 -466 0
1 -473 -475 0
1 -476 477 0
1 -476 468 0
1 -476 -475 0
1 -403 -469 0
1 478 -395 0
1 478 411 0
1 -470 469 0
1 -470 418 0
1 -479 -470 0
1 -479 410 0
1 -468 480 0
1 -410 299 0
1 412 -481 0
1 482 470 0
1 482 478 0
1 483 484 0
1 -483 -485 0
1 483 -428 0
1 -486 -487 0
1 -486 481 0
1 -481 487 0
1 -481 488 0
1 428 -417 0
1 428 489 0
1 -490 -483 0
1 -490 -491 0
1 491 -419 0
1 -489 -422 0
1 489 414 0
1 -414 -492 0
1 -425 493 0
1 439 -492 0
1 -494 -495 0
1 -496 -490 0
1 497 439 0
1 493 -420 0
1 493 435 0
1 461 -456 0
1 -498 499 0
1 498 -500 0
1 498 501 0
1 -498 375 0
1 -463 -375 0
1 -500 -463 0
1 -500 -502 0
1 -500 456 0
1 -503 498 0
1 -499 504 0
1 -505 -449 0
1 -506 375 0
1 502 -507 0
1 502 -508 0
1 -509 -451 0
1 509 502 0
1 509 454 0
1 454 498 0
1 -472 -473 0
1 472 454 0
1 -510 -454 0
1 510 -511 0
1 512 -510 0
1 -513 514 0
1 513 515 0
1 513 516 0
1 513 -510 0
1 513 517 0
1 -518 519 0
1 518 -520 0
1 521 475 0
1 -521 375 0
1 -516 473 0
1 -516 -471 0
1 471 -466 0
1 -515 522 0
1 -515 523 0
1 -515 -524 0
1 -515 -525 0
1 -517 -523 0
1 -517 -525 0
1 -523 512 0
1 -523 -517 0
1 523 -471 0
1 -523 -525 0
1 -525 -515 0
1 525 -526 0
1 -511 526 0
1 -488 524 0
1 488 527 0
1 487 -490 0
1 487 481 0
1 487 528 0
1 528 -481 0
1 529 515 0
1 -530 -477 0
1 -530 -529 0
1 524 517 0
1 484 -480 0
1 -484 531 0
1 532 530 0
1 532 -533 0
1 -492 439 0
1 -534 -528 0
1 -535 -534 0
1 535 492 0
1 -533 487 0
1 -480 -484 0
1 519 521 0
1 -522 536 0
1 -537 538 0
1 539 -519 0
1 539 -540 0
1 541 -539 0
1 -504 -519 0
1 -514 -521 0
1 -520 539 0
1 542 -543 0
1 542 -487 0
1 -542 544 0
1 -542 -545 0
1 -545 -546 0
1 545 547 0
1 -543 -548 0
1 -536 -549 0
1 550 -545 0
1 550 520 0
1 551 523 0
1 526 -474 0
1 548 -492 0
1 552 548 0
1 552 553 0
1 544 549 0
